p cnf 271 1333
c Factors encoded in variables 1-9 and 10-18
2 3 4 5 6 7 8 9 0
11 12 13 14 15 16 17 18 0
-19 0
20 0
-102 22 30 0
-102 -22 -30 0
102 22 -30 0
102 -22 30 0
-22 -30 103 0
22 30 -103 0
22 -103 0
30 -103 0
-104 23 31 103 0
-104 -23 -31 103 0
-104 -23 31 -103 0
-104 23 -31 -103 0
104 -23 -31 -103 0
104 23 31 -103 0
104 23 -31 103 0
104 -23 31 103 0
-23 -31 105 0
-23 -103 105 0
-31 -103 105 0
23 31 -105 0
23 103 -105 0
31 103 -105 0
-106 24 32 105 0
-106 -24 -32 105 0
-106 -24 32 -105 0
-106 24 -32 -105 0
106 -24 -32 -105 0
106 24 32 -105 0
106 24 -32 105 0
106 -24 32 105 0
-24 -32 107 0
-24 -105 107 0
-32 -105 107 0
24 32 -107 0
24 105 -107 0
32 105 -107 0
-108 25 33 107 0
-108 -25 -33 107 0
-108 -25 33 -107 0
-108 25 -33 -107 0
108 -25 -33 -107 0
108 25 33 -107 0
108 25 -33 107 0
108 -25 33 107 0
-25 -33 109 0
-25 -107 109 0
-33 -107 109 0
25 33 -109 0
25 107 -109 0
33 107 -109 0
-110 26 34 109 0
-110 -26 -34 109 0
-110 -26 34 -109 0
-110 26 -34 -109 0
110 -26 -34 -109 0
110 26 34 -109 0
110 26 -34 109 0
110 -26 34 109 0
-26 -34 111 0
-26 -109 111 0
-34 -109 111 0
26 34 -111 0
26 109 -111 0
34 109 -111 0
-112 27 35 111 0
-112 -27 -35 111 0
-112 -27 35 -111 0
-112 27 -35 -111 0
112 -27 -35 -111 0
112 27 35 -111 0
112 27 -35 111 0
112 -27 35 111 0
-27 -35 113 0
-27 -111 113 0
-35 -111 113 0
27 35 -113 0
27 111 -113 0
35 111 -113 0
-114 28 36 113 0
-114 -28 -36 113 0
-114 -28 36 -113 0
-114 28 -36 -113 0
114 -28 -36 -113 0
114 28 36 -113 0
114 28 -36 113 0
114 -28 36 113 0
-28 -36 115 0
-28 -113 115 0
-36 -113 115 0
28 36 -115 0
28 113 -115 0
36 113 -115 0
-116 29 37 115 0
-116 -29 -37 115 0
-116 -29 37 -115 0
-116 29 -37 -115 0
116 -29 -37 -115 0
116 29 37 -115 0
116 29 -37 115 0
116 -29 37 115 0
-29 -37 117 0
-29 -115 117 0
-37 -115 117 0
29 37 -117 0
29 115 -117 0
37 115 -117 0
-118 38 117 0
-118 -38 -117 0
118 38 -117 0
118 -38 117 0
-38 -117 119 0
38 117 -119 0
38 -119 0
117 -119 0
-120 40 48 0
-120 -40 -48 0
120 40 -48 0
120 -40 48 0
-40 -48 121 0
40 48 -121 0
40 -121 0
48 -121 0
-122 41 49 121 0
-122 -41 -49 121 0
-122 -41 49 -121 0
-122 41 -49 -121 0
122 -41 -49 -121 0
122 41 49 -121 0
122 41 -49 121 0
122 -41 49 121 0
-41 -49 123 0
-41 -121 123 0
-49 -121 123 0
41 49 -123 0
41 121 -123 0
49 121 -123 0
-124 42 50 123 0
-124 -42 -50 123 0
-124 -42 50 -123 0
-124 42 -50 -123 0
124 -42 -50 -123 0
124 42 50 -123 0
124 42 -50 123 0
124 -42 50 123 0
-42 -50 125 0
-42 -123 125 0
-50 -123 125 0
42 50 -125 0
42 123 -125 0
50 123 -125 0
-126 43 51 125 0
-126 -43 -51 125 0
-126 -43 51 -125 0
-126 43 -51 -125 0
126 -43 -51 -125 0
126 43 51 -125 0
126 43 -51 125 0
126 -43 51 125 0
-43 -51 127 0
-43 -125 127 0
-51 -125 127 0
43 51 -127 0
43 125 -127 0
51 125 -127 0
-128 44 52 127 0
-128 -44 -52 127 0
-128 -44 52 -127 0
-128 44 -52 -127 0
128 -44 -52 -127 0
128 44 52 -127 0
128 44 -52 127 0
128 -44 52 127 0
-44 -52 129 0
-44 -127 129 0
-52 -127 129 0
44 52 -129 0
44 127 -129 0
52 127 -129 0
-130 45 53 129 0
-130 -45 -53 129 0
-130 -45 53 -129 0
-130 45 -53 -129 0
130 -45 -53 -129 0
130 45 53 -129 0
130 45 -53 129 0
130 -45 53 129 0
-45 -53 131 0
-45 -129 131 0
-53 -129 131 0
45 53 -131 0
45 129 -131 0
53 129 -131 0
-132 46 54 131 0
-132 -46 -54 131 0
-132 -46 54 -131 0
-132 46 -54 -131 0
132 -46 -54 -131 0
132 46 54 -131 0
132 46 -54 131 0
132 -46 54 131 0
-46 -54 133 0
-46 -131 133 0
-54 -131 133 0
46 54 -133 0
46 131 -133 0
54 131 -133 0
-134 47 55 133 0
-134 -47 -55 133 0
-134 -47 55 -133 0
-134 47 -55 -133 0
134 -47 -55 -133 0
134 47 55 -133 0
134 47 -55 133 0
134 -47 55 133 0
-47 -55 135 0
-47 -133 135 0
-55 -133 135 0
47 55 -135 0
47 133 -135 0
55 133 -135 0
-136 56 135 0
-136 -56 -135 0
136 56 -135 0
136 -56 135 0
-56 -135 137 0
56 135 -137 0
56 -137 0
135 -137 0
-138 58 66 0
-138 -58 -66 0
138 58 -66 0
138 -58 66 0
-58 -66 139 0
58 66 -139 0
58 -139 0
66 -139 0
-140 59 67 139 0
-140 -59 -67 139 0
-140 -59 67 -139 0
-140 59 -67 -139 0
140 -59 -67 -139 0
140 59 67 -139 0
140 59 -67 139 0
140 -59 67 139 0
-59 -67 141 0
-59 -139 141 0
-67 -139 141 0
59 67 -141 0
59 139 -141 0
67 139 -141 0
-142 60 68 141 0
-142 -60 -68 141 0
-142 -60 68 -141 0
-142 60 -68 -141 0
142 -60 -68 -141 0
142 60 68 -141 0
142 60 -68 141 0
142 -60 68 141 0
-60 -68 143 0
-60 -141 143 0
-68 -141 143 0
60 68 -143 0
60 141 -143 0
68 141 -143 0
-144 61 69 143 0
-144 -61 -69 143 0
-144 -61 69 -143 0
-144 61 -69 -143 0
144 -61 -69 -143 0
144 61 69 -143 0
144 61 -69 143 0
144 -61 69 143 0
-61 -69 145 0
-61 -143 145 0
-69 -143 145 0
61 69 -145 0
61 143 -145 0
69 143 -145 0
-146 62 70 145 0
-146 -62 -70 145 0
-146 -62 70 -145 0
-146 62 -70 -145 0
146 -62 -70 -145 0
146 62 70 -145 0
146 62 -70 145 0
146 -62 70 145 0
-62 -70 147 0
-62 -145 147 0
-70 -145 147 0
62 70 -147 0
62 145 -147 0
70 145 -147 0
-148 63 71 147 0
-148 -63 -71 147 0
-148 -63 71 -147 0
-148 63 -71 -147 0
148 -63 -71 -147 0
148 63 71 -147 0
148 63 -71 147 0
148 -63 71 147 0
-63 -71 149 0
-63 -147 149 0
-71 -147 149 0
63 71 -149 0
63 147 -149 0
71 147 -149 0
-150 64 72 149 0
-150 -64 -72 149 0
-150 -64 72 -149 0
-150 64 -72 -149 0
150 -64 -72 -149 0
150 64 72 -149 0
150 64 -72 149 0
150 -64 72 149 0
-64 -72 151 0
-64 -149 151 0
-72 -149 151 0
64 72 -151 0
64 149 -151 0
72 149 -151 0
-152 65 73 151 0
-152 -65 -73 151 0
-152 -65 73 -151 0
-152 65 -73 -151 0
152 -65 -73 -151 0
152 65 73 -151 0
152 65 -73 151 0
152 -65 73 151 0
-65 -73 153 0
-65 -151 153 0
-73 -151 153 0
65 73 -153 0
65 151 -153 0
73 151 -153 0
-154 74 153 0
-154 -74 -153 0
154 74 -153 0
154 -74 153 0
-74 -153 155 0
74 153 -155 0
74 -155 0
153 -155 0
-156 76 84 0
-156 -76 -84 0
156 76 -84 0
156 -76 84 0
-76 -84 157 0
76 84 -157 0
76 -157 0
84 -157 0
-158 77 85 157 0
-158 -77 -85 157 0
-158 -77 85 -157 0
-158 77 -85 -157 0
158 -77 -85 -157 0
158 77 85 -157 0
158 77 -85 157 0
158 -77 85 157 0
-77 -85 159 0
-77 -157 159 0
-85 -157 159 0
77 85 -159 0
77 157 -159 0
85 157 -159 0
-160 78 86 159 0
-160 -78 -86 159 0
-160 -78 86 -159 0
-160 78 -86 -159 0
160 -78 -86 -159 0
160 78 86 -159 0
160 78 -86 159 0
160 -78 86 159 0
-78 -86 161 0
-78 -159 161 0
-86 -159 161 0
78 86 -161 0
78 159 -161 0
86 159 -161 0
-162 79 87 161 0
-162 -79 -87 161 0
-162 -79 87 -161 0
-162 79 -87 -161 0
162 -79 -87 -161 0
162 79 87 -161 0
162 79 -87 161 0
162 -79 87 161 0
-79 -87 163 0
-79 -161 163 0
-87 -161 163 0
79 87 -163 0
79 161 -163 0
87 161 -163 0
-164 80 88 163 0
-164 -80 -88 163 0
-164 -80 88 -163 0
-164 80 -88 -163 0
164 -80 -88 -163 0
164 80 88 -163 0
164 80 -88 163 0
164 -80 88 163 0
-80 -88 165 0
-80 -163 165 0
-88 -163 165 0
80 88 -165 0
80 163 -165 0
88 163 -165 0
-166 81 89 165 0
-166 -81 -89 165 0
-166 -81 89 -165 0
-166 81 -89 -165 0
166 -81 -89 -165 0
166 81 89 -165 0
166 81 -89 165 0
166 -81 89 165 0
-81 -89 167 0
-81 -165 167 0
-89 -165 167 0
81 89 -167 0
81 165 -167 0
89 165 -167 0
-168 82 90 167 0
-168 -82 -90 167 0
-168 -82 90 -167 0
-168 82 -90 -167 0
168 -82 -90 -167 0
168 82 90 -167 0
168 82 -90 167 0
168 -82 90 167 0
-82 -90 169 0
-82 -167 169 0
-90 -167 169 0
82 90 -169 0
82 167 -169 0
90 167 -169 0
-170 83 91 169 0
-170 -83 -91 169 0
-170 -83 91 -169 0
-170 83 -91 -169 0
170 -83 -91 -169 0
170 83 91 -169 0
170 83 -91 169 0
170 -83 91 169 0
-83 -91 171 0
-83 -169 171 0
-91 -169 171 0
83 91 -171 0
83 169 -171 0
91 169 -171 0
-172 92 171 0
-172 -92 -171 0
172 92 -171 0
172 -92 171 0
-92 -171 173 0
92 171 -173 0
92 -173 0
171 -173 0
-174 116 93 0
-174 -116 -93 0
174 116 -93 0
174 -116 93 0
-116 -93 175 0
116 93 -175 0
116 -175 0
93 -175 0
-176 118 94 175 0
-176 -118 -94 175 0
-176 -118 94 -175 0
-176 118 -94 -175 0
176 -118 -94 -175 0
176 118 94 -175 0
176 118 -94 175 0
176 -118 94 175 0
-118 -94 177 0
-118 -175 177 0
-94 -175 177 0
118 94 -177 0
118 175 -177 0
94 175 -177 0
-178 119 95 177 0
-178 -119 -95 177 0
-178 -119 95 -177 0
-178 119 -95 -177 0
178 -119 -95 -177 0
178 119 95 -177 0
178 119 -95 177 0
178 -119 95 177 0
-119 -95 179 0
-119 -177 179 0
-95 -177 179 0
119 95 -179 0
119 177 -179 0
95 177 -179 0
-180 96 179 0
-180 -96 -179 0
180 96 -179 0
180 -96 179 0
-96 -179 181 0
96 179 -181 0
96 -181 0
179 -181 0
-182 97 181 0
-182 -97 -181 0
182 97 -181 0
182 -97 181 0
-97 -181 183 0
97 181 -183 0
97 -183 0
181 -183 0
-184 98 183 0
-184 -98 -183 0
184 98 -183 0
184 -98 183 0
-98 -183 185 0
98 183 -185 0
98 -185 0
183 -185 0
-186 99 185 0
-186 -99 -185 0
186 99 -185 0
186 -99 185 0
-99 -185 187 0
99 185 -187 0
99 -187 0
185 -187 0
-188 100 187 0
-188 -100 -187 0
188 100 -187 0
188 -100 187 0
-100 -187 189 0
100 187 -189 0
100 -189 0
187 -189 0
-190 101 189 0
-190 -101 -189 0
190 101 -189 0
190 -101 189 0
-101 -189 191 0
101 189 -191 0
101 -191 0
189 -191 0
-192 122 57 0
-192 -122 -57 0
192 122 -57 0
192 -122 57 0
-122 -57 193 0
122 57 -193 0
122 -193 0
57 -193 0
-194 124 138 193 0
-194 -124 -138 193 0
-194 -124 138 -193 0
-194 124 -138 -193 0
194 -124 -138 -193 0
194 124 138 -193 0
194 124 -138 193 0
194 -124 138 193 0
-124 -138 195 0
-124 -193 195 0
-138 -193 195 0
124 138 -195 0
124 193 -195 0
138 193 -195 0
-196 126 140 195 0
-196 -126 -140 195 0
-196 -126 140 -195 0
-196 126 -140 -195 0
196 -126 -140 -195 0
196 126 140 -195 0
196 126 -140 195 0
196 -126 140 195 0
-126 -140 197 0
-126 -195 197 0
-140 -195 197 0
126 140 -197 0
126 195 -197 0
140 195 -197 0
-198 128 142 197 0
-198 -128 -142 197 0
-198 -128 142 -197 0
-198 128 -142 -197 0
198 -128 -142 -197 0
198 128 142 -197 0
198 128 -142 197 0
198 -128 142 197 0
-128 -142 199 0
-128 -197 199 0
-142 -197 199 0
128 142 -199 0
128 197 -199 0
142 197 -199 0
-200 130 144 199 0
-200 -130 -144 199 0
-200 -130 144 -199 0
-200 130 -144 -199 0
200 -130 -144 -199 0
200 130 144 -199 0
200 130 -144 199 0
200 -130 144 199 0
-130 -144 201 0
-130 -199 201 0
-144 -199 201 0
130 144 -201 0
130 199 -201 0
144 199 -201 0
-202 132 146 201 0
-202 -132 -146 201 0
-202 -132 146 -201 0
-202 132 -146 -201 0
202 -132 -146 -201 0
202 132 146 -201 0
202 132 -146 201 0
202 -132 146 201 0
-132 -146 203 0
-132 -201 203 0
-146 -201 203 0
132 146 -203 0
132 201 -203 0
146 201 -203 0
-204 134 148 203 0
-204 -134 -148 203 0
-204 -134 148 -203 0
-204 134 -148 -203 0
204 -134 -148 -203 0
204 134 148 -203 0
204 134 -148 203 0
204 -134 148 203 0
-134 -148 205 0
-134 -203 205 0
-148 -203 205 0
134 148 -205 0
134 203 -205 0
148 203 -205 0
-206 136 150 205 0
-206 -136 -150 205 0
-206 -136 150 -205 0
-206 136 -150 -205 0
206 -136 -150 -205 0
206 136 150 -205 0
206 136 -150 205 0
206 -136 150 205 0
-136 -150 207 0
-136 -205 207 0
-150 -205 207 0
136 150 -207 0
136 205 -207 0
150 205 -207 0
-208 137 152 207 0
-208 -137 -152 207 0
-208 -137 152 -207 0
-208 137 -152 -207 0
208 -137 -152 -207 0
208 137 152 -207 0
208 137 -152 207 0
208 -137 152 207 0
-137 -152 209 0
-137 -207 209 0
-152 -207 209 0
137 152 -209 0
137 207 -209 0
152 207 -209 0
-210 154 209 0
-210 -154 -209 0
210 154 -209 0
210 -154 209 0
-154 -209 211 0
154 209 -211 0
154 -211 0
209 -211 0
-212 155 211 0
-212 -155 -211 0
212 155 -211 0
212 -155 211 0
-155 -211 213 0
155 211 -213 0
155 -213 0
211 -213 0
-214 112 75 0
-214 -112 -75 0
214 112 -75 0
214 -112 75 0
-112 -75 215 0
112 75 -215 0
112 -215 0
75 -215 0
-216 114 156 215 0
-216 -114 -156 215 0
-216 -114 156 -215 0
-216 114 -156 -215 0
216 -114 -156 -215 0
216 114 156 -215 0
216 114 -156 215 0
216 -114 156 215 0
-114 -156 217 0
-114 -215 217 0
-156 -215 217 0
114 156 -217 0
114 215 -217 0
156 215 -217 0
-218 174 158 217 0
-218 -174 -158 217 0
-218 -174 158 -217 0
-218 174 -158 -217 0
218 -174 -158 -217 0
218 174 158 -217 0
218 174 -158 217 0
218 -174 158 217 0
-174 -158 219 0
-174 -217 219 0
-158 -217 219 0
174 158 -219 0
174 217 -219 0
158 217 -219 0
-220 176 160 219 0
-220 -176 -160 219 0
-220 -176 160 -219 0
-220 176 -160 -219 0
220 -176 -160 -219 0
220 176 160 -219 0
220 176 -160 219 0
220 -176 160 219 0
-176 -160 221 0
-176 -219 221 0
-160 -219 221 0
176 160 -221 0
176 219 -221 0
160 219 -221 0
-222 178 162 221 0
-222 -178 -162 221 0
-222 -178 162 -221 0
-222 178 -162 -221 0
222 -178 -162 -221 0
222 178 162 -221 0
222 178 -162 221 0
222 -178 162 221 0
-178 -162 223 0
-178 -221 223 0
-162 -221 223 0
178 162 -223 0
178 221 -223 0
162 221 -223 0
-224 180 164 223 0
-224 -180 -164 223 0
-224 -180 164 -223 0
-224 180 -164 -223 0
224 -180 -164 -223 0
224 180 164 -223 0
224 180 -164 223 0
224 -180 164 223 0
-180 -164 225 0
-180 -223 225 0
-164 -223 225 0
180 164 -225 0
180 223 -225 0
164 223 -225 0
-226 182 166 225 0
-226 -182 -166 225 0
-226 -182 166 -225 0
-226 182 -166 -225 0
226 -182 -166 -225 0
226 182 166 -225 0
226 182 -166 225 0
226 -182 166 225 0
-182 -166 227 0
-182 -225 227 0
-166 -225 227 0
182 166 -227 0
182 225 -227 0
166 225 -227 0
-228 184 168 227 0
-228 -184 -168 227 0
-228 -184 168 -227 0
-228 184 -168 -227 0
228 -184 -168 -227 0
228 184 168 -227 0
228 184 -168 227 0
228 -184 168 227 0
-184 -168 229 0
-184 -227 229 0
-168 -227 229 0
184 168 -229 0
184 227 -229 0
168 227 -229 0
-230 186 170 229 0
-230 -186 -170 229 0
-230 -186 170 -229 0
-230 186 -170 -229 0
230 -186 -170 -229 0
230 186 170 -229 0
230 186 -170 229 0
230 -186 170 229 0
-186 -170 231 0
-186 -229 231 0
-170 -229 231 0
186 170 -231 0
186 229 -231 0
170 229 -231 0
-232 188 172 231 0
-232 -188 -172 231 0
-232 -188 172 -231 0
-232 188 -172 -231 0
232 -188 -172 -231 0
232 188 172 -231 0
232 188 -172 231 0
232 -188 172 231 0
-188 -172 233 0
-188 -231 233 0
-172 -231 233 0
188 172 -233 0
188 231 -233 0
172 231 -233 0
-234 190 173 233 0
-234 -190 -173 233 0
-234 -190 173 -233 0
-234 190 -173 -233 0
234 -190 -173 -233 0
234 190 173 -233 0
234 190 -173 233 0
234 -190 173 233 0
-190 -173 235 0
-190 -233 235 0
-173 -233 235 0
190 173 -235 0
190 233 -235 0
173 233 -235 0
-236 191 235 0
-236 -191 -235 0
236 191 -235 0
236 -191 235 0
-191 -235 237 0
191 235 -237 0
191 -237 0
235 -237 0
-238 104 39 0
-238 -104 -39 0
238 104 -39 0
238 -104 39 0
-104 -39 239 0
104 39 -239 0
104 -239 0
39 -239 0
-240 106 120 239 0
-240 -106 -120 239 0
-240 -106 120 -239 0
-240 106 -120 -239 0
240 -106 -120 -239 0
240 106 120 -239 0
240 106 -120 239 0
240 -106 120 239 0
-106 -120 241 0
-106 -239 241 0
-120 -239 241 0
106 120 -241 0
106 239 -241 0
120 239 -241 0
-242 108 192 241 0
-242 -108 -192 241 0
-242 -108 192 -241 0
-242 108 -192 -241 0
242 -108 -192 -241 0
242 108 192 -241 0
242 108 -192 241 0
242 -108 192 241 0
-108 -192 243 0
-108 -241 243 0
-192 -241 243 0
108 192 -243 0
108 241 -243 0
192 241 -243 0
-244 110 194 243 0
-244 -110 -194 243 0
-244 -110 194 -243 0
-244 110 -194 -243 0
244 -110 -194 -243 0
244 110 194 -243 0
244 110 -194 243 0
244 -110 194 243 0
-110 -194 245 0
-110 -243 245 0
-194 -243 245 0
110 194 -245 0
110 243 -245 0
194 243 -245 0
-246 214 196 245 0
-246 -214 -196 245 0
-246 -214 196 -245 0
-246 214 -196 -245 0
246 -214 -196 -245 0
246 214 196 -245 0
246 214 -196 245 0
246 -214 196 245 0
-214 -196 247 0
-214 -245 247 0
-196 -245 247 0
214 196 -247 0
214 245 -247 0
196 245 -247 0
-248 216 198 247 0
-248 -216 -198 247 0
-248 -216 198 -247 0
-248 216 -198 -247 0
248 -216 -198 -247 0
248 216 198 -247 0
248 216 -198 247 0
248 -216 198 247 0
-216 -198 249 0
-216 -247 249 0
-198 -247 249 0
216 198 -249 0
216 247 -249 0
198 247 -249 0
-250 218 200 249 0
-250 -218 -200 249 0
-250 -218 200 -249 0
-250 218 -200 -249 0
250 -218 -200 -249 0
250 218 200 -249 0
250 218 -200 249 0
250 -218 200 249 0
-218 -200 251 0
-218 -249 251 0
-200 -249 251 0
218 200 -251 0
218 249 -251 0
200 249 -251 0
-252 220 202 251 0
-252 -220 -202 251 0
-252 -220 202 -251 0
-252 220 -202 -251 0
252 -220 -202 -251 0
252 220 202 -251 0
252 220 -202 251 0
252 -220 202 251 0
-220 -202 253 0
-220 -251 253 0
-202 -251 253 0
220 202 -253 0
220 251 -253 0
202 251 -253 0
-254 222 204 253 0
-254 -222 -204 253 0
-254 -222 204 -253 0
-254 222 -204 -253 0
254 -222 -204 -253 0
254 222 204 -253 0
254 222 -204 253 0
254 -222 204 253 0
-222 -204 255 0
-222 -253 255 0
-204 -253 255 0
222 204 -255 0
222 253 -255 0
204 253 -255 0
-256 224 206 255 0
-256 -224 -206 255 0
-256 -224 206 -255 0
-256 224 -206 -255 0
256 -224 -206 -255 0
256 224 206 -255 0
256 224 -206 255 0
256 -224 206 255 0
-224 -206 257 0
-224 -255 257 0
-206 -255 257 0
224 206 -257 0
224 255 -257 0
206 255 -257 0
-258 226 208 257 0
-258 -226 -208 257 0
-258 -226 208 -257 0
-258 226 -208 -257 0
258 -226 -208 -257 0
258 226 208 -257 0
258 226 -208 257 0
258 -226 208 257 0
-226 -208 259 0
-226 -257 259 0
-208 -257 259 0
226 208 -259 0
226 257 -259 0
208 257 -259 0
-260 228 210 259 0
-260 -228 -210 259 0
-260 -228 210 -259 0
-260 228 -210 -259 0
260 -228 -210 -259 0
260 228 210 -259 0
260 228 -210 259 0
260 -228 210 259 0
-228 -210 261 0
-228 -259 261 0
-210 -259 261 0
228 210 -261 0
228 259 -261 0
210 259 -261 0
-262 230 212 261 0
-262 -230 -212 261 0
-262 -230 212 -261 0
-262 230 -212 -261 0
262 -230 -212 -261 0
262 230 212 -261 0
262 230 -212 261 0
262 -230 212 261 0
-230 -212 263 0
-230 -261 263 0
-212 -261 263 0
230 212 -263 0
230 261 -263 0
212 261 -263 0
-264 232 213 263 0
-264 -232 -213 263 0
-264 -232 213 -263 0
-264 232 -213 -263 0
264 -232 -213 -263 0
264 232 213 -263 0
264 232 -213 263 0
264 -232 213 263 0
-232 -213 265 0
-232 -263 265 0
-213 -263 265 0
232 213 -265 0
232 263 -265 0
213 263 -265 0
-266 234 265 0
-266 -234 -265 0
266 234 -265 0
266 -234 265 0
-234 -265 267 0
234 265 -267 0
234 -267 0
265 -267 0
-268 236 267 0
-268 -236 -267 0
268 236 -267 0
268 -236 267 0
-236 -267 269 0
236 267 -269 0
236 -269 0
267 -269 0
-270 237 269 0
-270 -237 -269 0
270 237 -269 0
270 -237 269 0
-237 -269 271 0
237 269 -271 0
237 -271 0
269 -271 0
21 -1 -10 0
-21 1 0
-21 10 0
22 -2 -10 0
-22 2 0
-22 10 0
23 -3 -10 0
-23 3 0
-23 10 0
24 -4 -10 0
-24 4 0
-24 10 0
25 -5 -10 0
-25 5 0
-25 10 0
26 -6 -10 0
-26 6 0
-26 10 0
27 -7 -10 0
-27 7 0
-27 10 0
28 -8 -10 0
-28 8 0
-28 10 0
29 -9 -10 0
-29 9 0
-29 10 0
30 -1 -11 0
-30 1 0
-30 11 0
31 -2 -11 0
-31 2 0
-31 11 0
32 -3 -11 0
-32 3 0
-32 11 0
33 -4 -11 0
-33 4 0
-33 11 0
34 -5 -11 0
-34 5 0
-34 11 0
35 -6 -11 0
-35 6 0
-35 11 0
36 -7 -11 0
-36 7 0
-36 11 0
37 -8 -11 0
-37 8 0
-37 11 0
38 -9 -11 0
-38 9 0
-38 11 0
39 -1 -12 0
-39 1 0
-39 12 0
40 -2 -12 0
-40 2 0
-40 12 0
41 -3 -12 0
-41 3 0
-41 12 0
42 -4 -12 0
-42 4 0
-42 12 0
43 -5 -12 0
-43 5 0
-43 12 0
44 -6 -12 0
-44 6 0
-44 12 0
45 -7 -12 0
-45 7 0
-45 12 0
46 -8 -12 0
-46 8 0
-46 12 0
47 -9 -12 0
-47 9 0
-47 12 0
48 -1 -13 0
-48 1 0
-48 13 0
49 -2 -13 0
-49 2 0
-49 13 0
50 -3 -13 0
-50 3 0
-50 13 0
51 -4 -13 0
-51 4 0
-51 13 0
52 -5 -13 0
-52 5 0
-52 13 0
53 -6 -13 0
-53 6 0
-53 13 0
54 -7 -13 0
-54 7 0
-54 13 0
55 -8 -13 0
-55 8 0
-55 13 0
56 -9 -13 0
-56 9 0
-56 13 0
57 -1 -14 0
-57 1 0
-57 14 0
58 -2 -14 0
-58 2 0
-58 14 0
59 -3 -14 0
-59 3 0
-59 14 0
60 -4 -14 0
-60 4 0
-60 14 0
61 -5 -14 0
-61 5 0
-61 14 0
62 -6 -14 0
-62 6 0
-62 14 0
63 -7 -14 0
-63 7 0
-63 14 0
64 -8 -14 0
-64 8 0
-64 14 0
65 -9 -14 0
-65 9 0
-65 14 0
66 -1 -15 0
-66 1 0
-66 15 0
67 -2 -15 0
-67 2 0
-67 15 0
68 -3 -15 0
-68 3 0
-68 15 0
69 -4 -15 0
-69 4 0
-69 15 0
70 -5 -15 0
-70 5 0
-70 15 0
71 -6 -15 0
-71 6 0
-71 15 0
72 -7 -15 0
-72 7 0
-72 15 0
73 -8 -15 0
-73 8 0
-73 15 0
74 -9 -15 0
-74 9 0
-74 15 0
75 -1 -16 0
-75 1 0
-75 16 0
76 -2 -16 0
-76 2 0
-76 16 0
77 -3 -16 0
-77 3 0
-77 16 0
78 -4 -16 0
-78 4 0
-78 16 0
79 -5 -16 0
-79 5 0
-79 16 0
80 -6 -16 0
-80 6 0
-80 16 0
81 -7 -16 0
-81 7 0
-81 16 0
82 -8 -16 0
-82 8 0
-82 16 0
83 -9 -16 0
-83 9 0
-83 16 0
84 -1 -17 0
-84 1 0
-84 17 0
85 -2 -17 0
-85 2 0
-85 17 0
86 -3 -17 0
-86 3 0
-86 17 0
87 -4 -17 0
-87 4 0
-87 17 0
88 -5 -17 0
-88 5 0
-88 17 0
89 -6 -17 0
-89 6 0
-89 17 0
90 -7 -17 0
-90 7 0
-90 17 0
91 -8 -17 0
-91 8 0
-91 17 0
92 -9 -17 0
-92 9 0
-92 17 0
93 -1 -18 0
-93 1 0
-93 18 0
94 -2 -18 0
-94 2 0
-94 18 0
95 -3 -18 0
-95 3 0
-95 18 0
96 -4 -18 0
-96 4 0
-96 18 0
97 -5 -18 0
-97 5 0
-97 18 0
98 -6 -18 0
-98 6 0
-98 18 0
99 -7 -18 0
-99 7 0
-99 18 0
100 -8 -18 0
-100 8 0
-100 18 0
101 -9 -18 0
-101 9 0
-101 18 0
21 -20 0
-21 20 0
102 -20 0
-102 20 0
238 -19 0
-238 19 0
240 -19 0
-240 19 0
242 -20 0
-242 20 0
244 -20 0
-244 20 0
246 -19 0
-246 19 0
248 -20 0
-248 20 0
250 -20 0
-250 20 0
252 -19 0
-252 19 0
254 -19 0
-254 19 0
256 -19 0
-256 19 0
258 -19 0
-258 19 0
260 -19 0
-260 19 0
262 -19 0
-262 19 0
264 -19 0
-264 19 0
266 -19 0
-266 19 0
268 -19 0
-268 19 0
270 -19 0
-270 19 0
271 -19 0
-271 19 0
